************************************************************************
file with basedata            : mm4_.bas
initial value random generator: 1027102361
************************************************************************
projects                      :  1
jobs (incl. supersource/sink ):  12
horizon                       :  78
RESOURCES
  - renewable                 :  2   R
  - nonrenewable              :  2   N
  - doubly constrained        :  0   D
************************************************************************
PROJECT INFORMATION:
pronr.  #jobs rel.date duedate tardcost  MPM-Time
    1     10      0        9        4        9
************************************************************************
PRECEDENCE RELATIONS:
jobnr.    #modes  #successors   successors
   0        1          3           1   2   3
   1        3          3           4   5   6
   2        3          1           8
   3        3          2           4   8
   4        3          1          10
   5        3          1           7
   6        3          3           7   8   9
   7        3          1          10
   8        3          1          11
   9        3          1          11
  10        3          1          11
  11        1          0        
************************************************************************
REQUESTS/DURATIONS:
jobnr. mode duration  R 1  R 2  R 3  R 4  E(W 1)  E(W 2)  E(W 3)
------------------------------------------------------------------------
  0      1     0       0    0    0    0     0       0       0
  1      1     3       9    0    9    0    27      27       0
  2      1     1       7    0    0    9     7       0       9
  3      1     2       4    0    7    0     8      14       0
  4      1     1       0    9    9    0     9       9       0
  5      1     1       1    0    4    0     2       4       0
  6      1     1       9    0    0    8     9       0       8
  7      1     1       3    0    0    6     3       0       6
  8      1     1       9    0   10    0     9      10       0
  9      1     3       6    0    0    2    18       0       6
 10      1     4       9    0    7    0    36      28       0
 11      1     0       0    0    0    0     0       0       0
************************************************************************
RESOURCEAVAILABILITIES:
  R 1  R 2  R 3
   14   73   44
************************************************************************
RESOURCE LIMITS:
jobnr.  l(R 1)  u(R 1)  l(R 2)  u(R 2)  l(R 3)  u(R 3)
------------------------------------------------------------------------
  0        0       0       0       0       0       0
  1        5       9       5       9       0       0
  2        4       7       0       0       5       9
  3        2       4       4       7       0       0
  4        5       9       5       9       0       0
  5        1       2       2       4       0       0
  6        5       9       0       0       4       8
  7        2       3       0       0       3       6
  8        5       9       5      10       0       0
  9        3       6       0       0       1       2
 10        5       9       4       7       0       0
 11        0       0       0       0       0       0
************************************************************************
SCENARIOS:
------------------------------------------------------------------------
RESOURCE k = 1
s = 1: (0, 28, 6, 7, 9, 3, 10, 3, 6, 15, 56, 0)
s = 2: (0, 25, 9, 8, 10, 2, 16, 4, 10, 13, 50, 0)
s = 3: (0, 29, 8, 10, 11, 3, 8, 3, 7, 25, 31, 0)
s = 4: (0, 17, 9, 6, 10, 3, 10, 4, 9, 29, 24, 0)
s = 5: (0, 32, 8, 10, 12, 3, 8, 4, 12, 25, 28, 0)
s = 6: (0, 34, 12, 8, 11, 3, 10, 3, 7, 19, 39, 0)
s = 7: (0, 18, 7, 9, 6, 3, 10, 2, 12, 21, 46, 0)
s = 8: (0, 26, 6, 7, 10, 3, 6, 3, 12, 27, 31, 0)
s = 9: (0, 19, 6, 7, 9, 3, 8, 4, 12, 23, 47, 0)
s = 10: (0, 21, 12, 13, 8, 2, 10, 5, 10, 19, 58, 0)
s = 11: (0, 43, 8, 12, 12, 4, 11, 5, 11, 17, 55, 0)
s = 12: (0, 29, 7, 11, 12, 2, 7, 2, 8, 27, 51, 0)
s = 13: (0, 24, 8, 13, 15, 3, 16, 5, 8, 16, 27, 0)
s = 14: (0, 43, 5, 7, 10, 2, 10, 3, 11, 20, 42, 0)
s = 15: (0, 22, 5, 6, 8, 3, 10, 3, 14, 33, 37, 0)
s = 16: (0, 31, 8, 6, 9, 3, 8, 4, 8, 21, 28, 0)
s = 17: (0, 24, 9, 10, 10, 2, 9, 3, 9, 17, 58, 0)
s = 18: (0, 24, 12, 9, 9, 3, 6, 3, 10, 25, 42, 0)
s = 19: (0, 23, 7, 7, 9, 2, 9, 4, 12, 14, 43, 0)
s = 20: (0, 21, 5, 6, 17, 3, 10, 4, 8, 24, 29, 0)
s = 21: (0, 29, 12, 5, 8, 2, 9, 3, 6, 32, 37, 0)
s = 22: (0, 18, 7, 9, 8, 2, 9, 4, 9, 13, 30, 0)
s = 23: (0, 29, 7, 9, 8, 2, 11, 5, 12, 22, 29, 0)
s = 24: (0, 30, 8, 7, 11, 3, 12, 6, 14, 21, 26, 0)
s = 25: (0, 28, 9, 9, 10, 3, 8, 3, 10, 13, 67, 0)
s = 26: (0, 36, 6, 7, 14, 3, 9, 4, 10, 12, 37, 0)
s = 27: (0, 30, 6, 9, 11, 3, 9, 3, 8, 23, 47, 0)
s = 28: (0, 27, 8, 7, 6, 2, 8, 3, 6, 17, 25, 0)
s = 29: (0, 24, 7, 8, 15, 2, 11, 3, 11, 14, 23, 0)
s = 30: (0, 28, 8, 6, 13, 3, 9, 4, 6, 12, 40, 0)
s = 31: (0, 21, 8, 12, 10, 2, 9, 3, 6, 24, 64, 0)
s = 32: (0, 20, 9, 8, 10, 2, 13, 4, 12, 13, 31, 0)
s = 33: (0, 21, 10, 8, 6, 2, 8, 4, 11, 22, 40, 0)
s = 34: (0, 36, 5, 6, 10, 3, 9, 3, 7, 17, 29, 0)
s = 35: (0, 38, 11, 5, 8, 2, 8, 3, 10, 13, 36, 0)
s = 36: (0, 30, 5, 7, 7, 2, 7, 6, 12, 12, 24, 0)
s = 37: (0, 27, 6, 11, 11, 3, 11, 4, 10, 16, 38, 0)
s = 38: (0, 36, 6, 10, 14, 2, 10, 4, 14, 16, 46, 0)
s = 39: (0, 36, 6, 7, 8, 2, 6, 5, 11, 26, 41, 0)
s = 40: (0, 23, 6, 8, 8, 2, 9, 4, 11, 19, 25, 0)
s = 41: (0, 25, 8, 8, 7, 2, 9, 2, 12, 25, 31, 0)
s = 42: (0, 39, 8, 6, 11, 2, 6, 4, 7, 18, 29, 0)
s = 43: (0, 29, 7, 5, 13, 3, 10, 4, 12, 14, 38, 0)
s = 44: (0, 18, 6, 7, 8, 2, 11, 4, 9, 23, 56, 0)
s = 45: (0, 23, 6, 10, 6, 2, 7, 4, 9, 19, 52, 0)
s = 46: (0, 32, 6, 8, 10, 3, 6, 3, 7, 15, 32, 0)
s = 47: (0, 28, 8, 5, 8, 2, 9, 4, 6, 11, 55, 0)
s = 48: (0, 16, 5, 11, 6, 2, 15, 5, 11, 18, 38, 0)
s = 49: (0, 33, 5, 6, 10, 3, 12, 3, 7, 21, 38, 0)
s = 50: (0, 24, 8, 6, 9, 3, 9, 3, 9, 15, 40, 0)
s = 51: (0, 16, 8, 14, 7, 2, 9, 2, 15, 13, 24, 0)
s = 52: (0, 26, 9, 9, 7, 3, 15, 2, 6, 26, 27, 0)
s = 53: (0, 31, 4, 9, 10, 3, 9, 4, 7, 25, 24, 0)
s = 54: (0, 20, 5, 6, 9, 2, 6, 2, 7, 15, 22, 0)
s = 55: (0, 37, 13, 7, 16, 2, 8, 3, 10, 13, 27, 0)
s = 56: (0, 14, 7, 9, 6, 2, 14, 4, 8, 17, 43, 0)
s = 57: (0, 26, 10, 8, 9, 2, 8, 4, 9, 12, 58, 0)
s = 58: (0, 35, 6, 8, 7, 3, 10, 4, 6, 14, 32, 0)
s = 59: (0, 29, 7, 9, 7, 3, 11, 6, 9, 18, 41, 0)
s = 60: (0, 39, 5, 13, 13, 3, 6, 4, 15, 15, 40, 0)
s = 61: (0, 35, 8, 8, 7, 3, 8, 4, 10, 16, 26, 0)
s = 62: (0, 47, 12, 9, 12, 2, 8, 3, 8, 21, 30, 0)
s = 63: (0, 24, 9, 6, 7, 3, 6, 5, 12, 16, 30, 0)
s = 64: (0, 20, 7, 9, 7, 2, 8, 3, 7, 25, 41, 0)
s = 65: (0, 25, 8, 7, 15, 2, 7, 4, 11, 22, 42, 0)
s = 66: (0, 18, 6, 12, 6, 3, 13, 3, 15, 17, 22, 0)
s = 67: (0, 21, 10, 8, 9, 2, 9, 3, 6, 22, 33, 0)
s = 68: (0, 34, 11, 9, 9, 3, 8, 4, 10, 13, 46, 0)
s = 69: (0, 33, 5, 7, 10, 2, 10, 4, 9, 15, 46, 0)
s = 70: (0, 29, 7, 12, 10, 2, 14, 3, 9, 16, 44, 0)
s = 71: (0, 28, 8, 13, 9, 3, 12, 4, 11, 19, 31, 0)
s = 72: (0, 18, 5, 7, 11, 2, 10, 3, 6, 24, 36, 0)
s = 73: (0, 26, 5, 10, 14, 2, 8, 5, 7, 25, 27, 0)
s = 74: (0, 24, 11, 12, 9, 4, 11, 3, 8, 23, 25, 0)
s = 75: (0, 22, 5, 9, 8, 3, 9, 4, 11, 11, 48, 0)
s = 76: (0, 17, 9, 8, 15, 2, 8, 6, 14, 17, 42, 0)
s = 77: (0, 30, 6, 6, 6, 2, 7, 3, 10, 13, 26, 0)
s = 78: (0, 30, 7, 7, 13, 2, 9, 5, 6, 11, 23, 0)
s = 79: (0, 42, 6, 8, 6, 2, 9, 3, 13, 24, 39, 0)
s = 80: (0, 25, 4, 7, 13, 4, 9, 3, 9, 12, 49, 0)
s = 81: (0, 24, 7, 7, 13, 4, 9, 4, 9, 25, 38, 0)
s = 82: (0, 23, 11, 5, 14, 2, 13, 4, 6, 17, 29, 0)
s = 83: (0, 24, 12, 8, 11, 2, 6, 5, 7, 21, 48, 0)
s = 84: (0, 17, 6, 11, 7, 3, 16, 3, 6, 25, 40, 0)
s = 85: (0, 29, 10, 10, 6, 3, 11, 4, 9, 18, 46, 0)
s = 86: (0, 17, 6, 8, 7, 2, 7, 5, 9, 19, 27, 0)
s = 87: (0, 20, 6, 8, 10, 2, 10, 4, 11, 17, 31, 0)
s = 88: (0, 18, 5, 5, 9, 3, 15, 5, 9, 15, 39, 0)
s = 89: (0, 30, 6, 6, 8, 3, 9, 4, 8, 13, 28, 0)
s = 90: (0, 32, 7, 10, 11, 2, 11, 4, 9, 14, 24, 0)
s = 91: (0, 19, 7, 8, 8, 2, 8, 4, 12, 12, 39, 0)
s = 92: (0, 39, 5, 9, 7, 2, 11, 2, 8, 13, 27, 0)
s = 93: (0, 38, 7, 9, 8, 3, 9, 3, 7, 24, 27, 0)
s = 94: (0, 28, 9, 10, 15, 3, 7, 2, 10, 18, 38, 0)
s = 95: (0, 38, 10, 5, 14, 2, 8, 3, 7, 20, 23, 0)
s = 96: (0, 27, 6, 6, 12, 2, 11, 3, 6, 20, 38, 0)
s = 97: (0, 17, 10, 9, 10, 3, 11, 3, 8, 29, 35, 0)
s = 98: (0, 39, 5, 7, 10, 2, 9, 3, 9, 21, 23, 0)
s = 99: (0, 31, 7, 7, 7, 3, 8, 3, 6, 15, 41, 0)
s = 100: (0, 22, 5, 8, 11, 3, 10, 4, 9, 18, 53, 0)
s = 101: (0, 26, 6, 7, 8, 2, 7, 3, 8, 16, 34, 0)
s = 102: (0, 40, 9, 6, 7, 2, 9, 5, 6, 25, 71, 0)
s = 103: (0, 44, 9, 8, 7, 2, 11, 3, 8, 27, 36, 0)
s = 104: (0, 20, 8, 8, 9, 2, 11, 3, 7, 11, 23, 0)
s = 105: (0, 32, 7, 9, 8, 3, 10, 2, 9, 27, 36, 0)
s = 106: (0, 27, 6, 8, 6, 3, 7, 2, 6, 22, 53, 0)
s = 107: (0, 23, 5, 11, 8, 2, 6, 3, 9, 15, 19, 0)
s = 108: (0, 36, 10, 6, 8, 2, 14, 5, 12, 35, 61, 0)
s = 109: (0, 20, 8, 8, 10, 2, 7, 5, 11, 13, 37, 0)
s = 110: (0, 31, 6, 10, 8, 2, 7, 2, 10, 19, 30, 0)
s = 111: (0, 20, 8, 8, 11, 3, 10, 5, 7, 17, 45, 0)
s = 112: (0, 22, 10, 6, 9, 2, 7, 4, 9, 24, 50, 0)
s = 113: (0, 21, 10, 8, 6, 2, 11, 4, 13, 29, 33, 0)
s = 114: (0, 33, 7, 8, 12, 2, 13, 3, 10, 25, 21, 0)
s = 115: (0, 23, 5, 8, 10, 3, 8, 5, 10, 18, 29, 0)
s = 116: (0, 17, 6, 8, 10, 3, 7, 3, 9, 16, 33, 0)
s = 117: (0, 33, 4, 9, 9, 2, 12, 3, 6, 12, 25, 0)
s = 118: (0, 44, 9, 11, 11, 2, 7, 3, 10, 10, 26, 0)
s = 119: (0, 31, 8, 12, 6, 2, 7, 3, 8, 16, 27, 0)
s = 120: (0, 40, 6, 9, 9, 2, 15, 2, 10, 28, 26, 0)
s = 121: (0, 39, 5, 10, 9, 2, 12, 4, 8, 15, 27, 0)
s = 122: (0, 37, 9, 10, 11, 4, 6, 5, 13, 16, 51, 0)
s = 123: (0, 26, 6, 9, 9, 2, 13, 5, 9, 19, 40, 0)
s = 124: (0, 28, 10, 6, 12, 2, 16, 4, 8, 31, 22, 0)
s = 125: (0, 28, 5, 8, 7, 3, 12, 6, 7, 28, 44, 0)
s = 126: (0, 23, 8, 5, 13, 3, 8, 3, 8, 12, 27, 0)
s = 127: (0, 23, 10, 9, 7, 2, 11, 3, 7, 19, 47, 0)
s = 128: (0, 23, 5, 13, 6, 3, 10, 4, 9, 24, 29, 0)
s = 129: (0, 20, 8, 7, 16, 3, 7, 3, 8, 29, 56, 0)
s = 130: (0, 37, 6, 9, 7, 4, 11, 4, 12, 10, 40, 0)
s = 131: (0, 37, 10, 7, 7, 3, 8, 4, 8, 17, 60, 0)
s = 132: (0, 17, 7, 7, 16, 2, 7, 5, 11, 12, 33, 0)
s = 133: (0, 17, 11, 10, 12, 3, 10, 3, 11, 17, 33, 0)
s = 134: (0, 21, 5, 8, 13, 2, 13, 3, 7, 13, 44, 0)
s = 135: (0, 24, 10, 7, 10, 2, 12, 4, 9, 20, 67, 0)
s = 136: (0, 43, 7, 8, 8, 2, 11, 3, 16, 20, 25, 0)
s = 137: (0, 39, 9, 8, 11, 3, 12, 3, 7, 10, 26, 0)
s = 138: (0, 34, 8, 6, 12, 2, 6, 2, 9, 13, 42, 0)
s = 139: (0, 43, 4, 8, 8, 2, 5, 4, 13, 20, 29, 0)
s = 140: (0, 25, 6, 6, 9, 3, 11, 3, 10, 30, 24, 0)
s = 141: (0, 37, 7, 7, 9, 2, 7, 4, 7, 29, 33, 0)
s = 142: (0, 27, 8, 6, 5, 2, 12, 4, 11, 22, 51, 0)
s = 143: (0, 27, 10, 8, 9, 4, 9, 3, 6, 16, 35, 0)
s = 144: (0, 19, 4, 9, 8, 2, 9, 2, 7, 24, 22, 0)
s = 145: (0, 16, 9, 6, 12, 2, 6, 4, 7, 19, 40, 0)
s = 146: (0, 20, 8, 7, 7, 3, 16, 5, 9, 23, 21, 0)
s = 147: (0, 23, 7, 8, 8, 2, 10, 2, 11, 20, 26, 0)
s = 148: (0, 18, 8, 8, 13, 2, 6, 4, 11, 12, 27, 0)
s = 149: (0, 35, 6, 10, 6, 2, 10, 4, 10, 28, 28, 0)
s = 150: (0, 26, 7, 9, 7, 3, 10, 3, 6, 11, 23, 0)
s = 151: (0, 29, 10, 7, 8, 2, 14, 4, 6, 19, 43, 0)
s = 152: (0, 28, 14, 6, 10, 3, 12, 4, 9, 16, 27, 0)
s = 153: (0, 21, 9, 11, 11, 2, 9, 5, 7, 17, 34, 0)
s = 154: (0, 15, 9, 6, 9, 2, 5, 5, 13, 19, 39, 0)
s = 155: (0, 38, 12, 9, 9, 3, 11, 5, 13, 13, 28, 0)
s = 156: (0, 26, 6, 11, 8, 2, 8, 4, 7, 20, 41, 0)
s = 157: (0, 27, 8, 13, 8, 3, 11, 3, 11, 14, 24, 0)
s = 158: (0, 28, 4, 16, 10, 2, 6, 5, 8, 23, 44, 0)
s = 159: (0, 25, 6, 6, 10, 3, 8, 3, 13, 23, 26, 0)
s = 160: (0, 37, 9, 6, 16, 3, 13, 4, 12, 26, 48, 0)
s = 161: (0, 28, 8, 11, 8, 2, 9, 5, 14, 14, 50, 0)
s = 162: (0, 29, 5, 8, 9, 2, 12, 4, 6, 31, 35, 0)
s = 163: (0, 28, 8, 11, 7, 4, 9, 3, 5, 18, 26, 0)
s = 164: (0, 21, 7, 8, 8, 3, 10, 3, 13, 15, 40, 0)
s = 165: (0, 34, 6, 13, 10, 2, 8, 4, 11, 12, 19, 0)
s = 166: (0, 28, 8, 9, 11, 3, 8, 4, 9, 21, 25, 0)
s = 167: (0, 32, 7, 12, 12, 2, 7, 5, 13, 29, 37, 0)
s = 168: (0, 18, 6, 10, 6, 3, 9, 2, 7, 11, 34, 0)
s = 169: (0, 26, 9, 6, 11, 3, 8, 3, 7, 13, 45, 0)
s = 170: (0, 26, 6, 8, 7, 2, 9, 4, 7, 21, 52, 0)
s = 171: (0, 25, 7, 13, 14, 2, 12, 3, 7, 22, 43, 0)
s = 172: (0, 19, 6, 7, 11, 3, 8, 3, 10, 17, 49, 0)
s = 173: (0, 30, 5, 9, 12, 3, 10, 3, 8, 30, 29, 0)
s = 174: (0, 32, 5, 10, 13, 3, 12, 3, 10, 11, 47, 0)
s = 175: (0, 23, 5, 12, 9, 3, 13, 4, 7, 25, 33, 0)
s = 176: (0, 19, 7, 6, 9, 2, 11, 3, 13, 15, 32, 0)
s = 177: (0, 26, 8, 9, 8, 3, 10, 3, 8, 28, 31, 0)
s = 178: (0, 19, 8, 7, 13, 4, 9, 4, 10, 27, 27, 0)
s = 179: (0, 28, 6, 6, 7, 3, 10, 3, 13, 19, 47, 0)
s = 180: (0, 23, 12, 7, 9, 2, 12, 3, 10, 14, 32, 0)
s = 181: (0, 35, 7, 11, 8, 3, 9, 3, 9, 14, 30, 0)
s = 182: (0, 36, 12, 8, 10, 3, 11, 4, 11, 17, 29, 0)
s = 183: (0, 25, 9, 11, 8, 2, 9, 5, 7, 25, 44, 0)
s = 184: (0, 24, 5, 7, 8, 3, 16, 3, 9, 19, 33, 0)
s = 185: (0, 25, 9, 10, 7, 4, 9, 3, 10, 15, 36, 0)
s = 186: (0, 21, 10, 5, 11, 3, 11, 3, 10, 27, 44, 0)
s = 187: (0, 22, 6, 6, 8, 2, 8, 3, 11, 16, 36, 0)
s = 188: (0, 30, 5, 12, 7, 3, 10, 3, 14, 22, 33, 0)
s = 189: (0, 23, 6, 10, 13, 3, 10, 3, 9, 17, 42, 0)
s = 190: (0, 25, 6, 10, 6, 4, 9, 5, 12, 11, 22, 0)
s = 191: (0, 27, 9, 10, 8, 2, 8, 4, 8, 14, 22, 0)
s = 192: (0, 40, 11, 7, 8, 2, 8, 3, 12, 17, 28, 0)
s = 193: (0, 20, 5, 7, 6, 2, 13, 2, 7, 16, 34, 0)
s = 194: (0, 20, 6, 6, 6, 3, 9, 3, 15, 12, 23, 0)
s = 195: (0, 30, 5, 7, 8, 3, 8, 4, 11, 20, 48, 0)
s = 196: (0, 21, 6, 10, 8, 2, 7, 3, 7, 16, 29, 0)
s = 197: (0, 29, 8, 12, 7, 3, 8, 2, 10, 29, 19, 0)
s = 198: (0, 28, 8, 7, 8, 2, 8, 5, 8, 12, 36, 0)
s = 199: (0, 34, 9, 11, 15, 2, 11, 2, 12, 28, 24, 0)
s = 200: (0, 27, 5, 7, 14, 3, 12, 2, 11, 26, 39, 0)
------------------------------------------------------------------------
RESOURCE k = 2
s = 1: (0, 28, 0, 12, 9, 5, 0, 0, 7, 0, 44, 0)
s = 2: (0, 25, 0, 14, 10, 4, 0, 0, 11, 0, 39, 0)
s = 3: (0, 29, 0, 16, 11, 5, 0, 0, 8, 0, 24, 0)
s = 4: (0, 17, 0, 11, 10, 5, 0, 0, 10, 0, 19, 0)
s = 5: (0, 32, 0, 17, 12, 5, 0, 0, 13, 0, 22, 0)
s = 6: (0, 34, 0, 14, 11, 5, 0, 0, 8, 0, 31, 0)
s = 7: (0, 18, 0, 16, 6, 5, 0, 0, 13, 0, 36, 0)
s = 8: (0, 26, 0, 12, 10, 5, 0, 0, 13, 0, 24, 0)
s = 9: (0, 19, 0, 12, 9, 6, 0, 0, 13, 0, 36, 0)
s = 10: (0, 21, 0, 22, 8, 3, 0, 0, 11, 0, 45, 0)
s = 11: (0, 43, 0, 20, 12, 7, 0, 0, 12, 0, 43, 0)
s = 12: (0, 29, 0, 19, 12, 3, 0, 0, 9, 0, 40, 0)
s = 13: (0, 24, 0, 23, 15, 5, 0, 0, 9, 0, 21, 0)
s = 14: (0, 43, 0, 12, 10, 4, 0, 0, 13, 0, 33, 0)
s = 15: (0, 22, 0, 10, 8, 5, 0, 0, 15, 0, 29, 0)
s = 16: (0, 31, 0, 11, 9, 5, 0, 0, 9, 0, 22, 0)
s = 17: (0, 24, 0, 18, 10, 3, 0, 0, 10, 0, 45, 0)
s = 18: (0, 24, 0, 15, 9, 6, 0, 0, 11, 0, 33, 0)
s = 19: (0, 23, 0, 12, 9, 3, 0, 0, 13, 0, 34, 0)
s = 20: (0, 21, 0, 10, 17, 5, 0, 0, 9, 0, 22, 0)
s = 21: (0, 29, 0, 8, 8, 3, 0, 0, 6, 0, 29, 0)
s = 22: (0, 18, 0, 15, 8, 3, 0, 0, 10, 0, 24, 0)
s = 23: (0, 29, 0, 16, 8, 4, 0, 0, 13, 0, 23, 0)
s = 24: (0, 30, 0, 11, 11, 5, 0, 0, 15, 0, 20, 0)
s = 25: (0, 28, 0, 15, 10, 5, 0, 0, 11, 0, 52, 0)
s = 26: (0, 36, 0, 11, 14, 5, 0, 0, 11, 0, 29, 0)
s = 27: (0, 30, 0, 15, 11, 6, 0, 0, 9, 0, 37, 0)
s = 28: (0, 27, 0, 12, 6, 4, 0, 0, 7, 0, 19, 0)
s = 29: (0, 24, 0, 13, 15, 4, 0, 0, 13, 0, 18, 0)
s = 30: (0, 28, 0, 10, 13, 5, 0, 0, 6, 0, 31, 0)
s = 31: (0, 21, 0, 21, 10, 4, 0, 0, 7, 0, 50, 0)
s = 32: (0, 20, 0, 13, 10, 3, 0, 0, 13, 0, 24, 0)
s = 33: (0, 21, 0, 13, 6, 4, 0, 0, 12, 0, 31, 0)
s = 34: (0, 36, 0, 10, 10, 6, 0, 0, 8, 0, 23, 0)
s = 35: (0, 38, 0, 9, 8, 3, 0, 0, 11, 0, 28, 0)
s = 36: (0, 30, 0, 12, 7, 3, 0, 0, 13, 0, 19, 0)
s = 37: (0, 27, 0, 18, 11, 5, 0, 0, 11, 0, 30, 0)
s = 38: (0, 36, 0, 16, 14, 4, 0, 0, 15, 0, 36, 0)
s = 39: (0, 36, 0, 13, 8, 3, 0, 0, 12, 0, 32, 0)
s = 40: (0, 23, 0, 14, 8, 4, 0, 0, 12, 0, 19, 0)
s = 41: (0, 25, 0, 14, 7, 3, 0, 0, 13, 0, 24, 0)
s = 42: (0, 39, 0, 11, 11, 3, 0, 0, 7, 0, 22, 0)
s = 43: (0, 29, 0, 8, 13, 5, 0, 0, 13, 0, 29, 0)
s = 44: (0, 18, 0, 12, 8, 4, 0, 0, 10, 0, 43, 0)
s = 45: (0, 23, 0, 17, 6, 4, 0, 0, 10, 0, 40, 0)
s = 46: (0, 32, 0, 14, 10, 5, 0, 0, 8, 0, 25, 0)
s = 47: (0, 28, 0, 9, 8, 4, 0, 0, 6, 0, 43, 0)
s = 48: (0, 16, 0, 19, 6, 4, 0, 0, 12, 0, 29, 0)
s = 49: (0, 33, 0, 10, 10, 5, 0, 0, 7, 0, 30, 0)
s = 50: (0, 24, 0, 11, 9, 5, 0, 0, 10, 0, 31, 0)
s = 51: (0, 16, 0, 24, 7, 3, 0, 0, 16, 0, 19, 0)
s = 52: (0, 26, 0, 16, 7, 6, 0, 0, 6, 0, 21, 0)
s = 53: (0, 31, 0, 15, 10, 6, 0, 0, 7, 0, 19, 0)
s = 54: (0, 20, 0, 10, 9, 4, 0, 0, 8, 0, 17, 0)
s = 55: (0, 37, 0, 12, 16, 4, 0, 0, 11, 0, 21, 0)
s = 56: (0, 14, 0, 15, 6, 4, 0, 0, 9, 0, 33, 0)
s = 57: (0, 26, 0, 14, 9, 4, 0, 0, 10, 0, 45, 0)
s = 58: (0, 35, 0, 13, 7, 5, 0, 0, 7, 0, 25, 0)
s = 59: (0, 29, 0, 15, 7, 5, 0, 0, 10, 0, 32, 0)
s = 60: (0, 39, 0, 22, 13, 5, 0, 0, 17, 0, 31, 0)
s = 61: (0, 35, 0, 13, 7, 5, 0, 0, 11, 0, 21, 0)
s = 62: (0, 47, 0, 16, 12, 4, 0, 0, 9, 0, 23, 0)
s = 63: (0, 24, 0, 9, 7, 5, 0, 0, 14, 0, 24, 0)
s = 64: (0, 20, 0, 15, 7, 4, 0, 0, 8, 0, 32, 0)
s = 65: (0, 25, 0, 12, 15, 3, 0, 0, 13, 0, 33, 0)
s = 66: (0, 18, 0, 20, 6, 5, 0, 0, 17, 0, 17, 0)
s = 67: (0, 21, 0, 14, 9, 4, 0, 0, 6, 0, 26, 0)
s = 68: (0, 34, 0, 15, 9, 5, 0, 0, 11, 0, 36, 0)
s = 69: (0, 33, 0, 12, 10, 4, 0, 0, 10, 0, 36, 0)
s = 70: (0, 29, 0, 21, 10, 3, 0, 0, 10, 0, 34, 0)
s = 71: (0, 28, 0, 22, 9, 5, 0, 0, 12, 0, 25, 0)
s = 72: (0, 18, 0, 12, 11, 3, 0, 0, 7, 0, 28, 0)
s = 73: (0, 26, 0, 17, 14, 3, 0, 0, 7, 0, 21, 0)
s = 74: (0, 24, 0, 20, 9, 7, 0, 0, 9, 0, 19, 0)
s = 75: (0, 22, 0, 15, 8, 5, 0, 0, 12, 0, 37, 0)
s = 76: (0, 17, 0, 14, 15, 4, 0, 0, 15, 0, 33, 0)
s = 77: (0, 30, 0, 10, 6, 4, 0, 0, 11, 0, 20, 0)
s = 78: (0, 30, 0, 12, 13, 4, 0, 0, 7, 0, 18, 0)
s = 79: (0, 42, 0, 14, 6, 4, 0, 0, 15, 0, 30, 0)
s = 80: (0, 25, 0, 12, 13, 7, 0, 0, 10, 0, 38, 0)
s = 81: (0, 24, 0, 12, 13, 7, 0, 0, 10, 0, 29, 0)
s = 82: (0, 23, 0, 8, 14, 4, 0, 0, 6, 0, 22, 0)
s = 83: (0, 24, 0, 13, 11, 3, 0, 0, 8, 0, 38, 0)
s = 84: (0, 17, 0, 18, 7, 5, 0, 0, 7, 0, 31, 0)
s = 85: (0, 29, 0, 16, 6, 5, 0, 0, 10, 0, 36, 0)
s = 86: (0, 17, 0, 14, 7, 4, 0, 0, 10, 0, 21, 0)
s = 87: (0, 20, 0, 14, 10, 3, 0, 0, 12, 0, 25, 0)
s = 88: (0, 18, 0, 9, 9, 6, 0, 0, 9, 0, 31, 0)
s = 89: (0, 30, 0, 10, 8, 5, 0, 0, 9, 0, 22, 0)
s = 90: (0, 32, 0, 18, 11, 4, 0, 0, 10, 0, 19, 0)
s = 91: (0, 19, 0, 13, 8, 4, 0, 0, 13, 0, 30, 0)
s = 92: (0, 39, 0, 15, 7, 4, 0, 0, 9, 0, 21, 0)
s = 93: (0, 38, 0, 16, 8, 6, 0, 0, 8, 0, 21, 0)
s = 94: (0, 28, 0, 16, 15, 5, 0, 0, 11, 0, 30, 0)
s = 95: (0, 38, 0, 9, 14, 4, 0, 0, 8, 0, 18, 0)
s = 96: (0, 27, 0, 10, 12, 4, 0, 0, 7, 0, 30, 0)
s = 97: (0, 17, 0, 15, 10, 6, 0, 0, 9, 0, 28, 0)
s = 98: (0, 39, 0, 11, 10, 3, 0, 0, 10, 0, 18, 0)
s = 99: (0, 31, 0, 12, 7, 5, 0, 0, 6, 0, 32, 0)
s = 100: (0, 22, 0, 14, 11, 5, 0, 0, 10, 0, 41, 0)
s = 101: (0, 26, 0, 11, 8, 3, 0, 0, 9, 0, 26, 0)
s = 102: (0, 40, 0, 10, 7, 4, 0, 0, 6, 0, 55, 0)
s = 103: (0, 44, 0, 14, 7, 4, 0, 0, 9, 0, 28, 0)
s = 104: (0, 20, 0, 13, 9, 4, 0, 0, 8, 0, 18, 0)
s = 105: (0, 32, 0, 16, 8, 5, 0, 0, 9, 0, 28, 0)
s = 106: (0, 27, 0, 14, 6, 5, 0, 0, 7, 0, 42, 0)
s = 107: (0, 23, 0, 18, 8, 4, 0, 0, 10, 0, 15, 0)
s = 108: (0, 36, 0, 10, 8, 4, 0, 0, 13, 0, 47, 0)
s = 109: (0, 20, 0, 13, 10, 4, 0, 0, 12, 0, 29, 0)
s = 110: (0, 31, 0, 18, 8, 3, 0, 0, 11, 0, 23, 0)
s = 111: (0, 20, 0, 14, 11, 6, 0, 0, 8, 0, 35, 0)
s = 112: (0, 22, 0, 11, 9, 4, 0, 0, 10, 0, 39, 0)
s = 113: (0, 21, 0, 13, 6, 4, 0, 0, 15, 0, 26, 0)
s = 114: (0, 33, 0, 14, 12, 4, 0, 0, 12, 0, 16, 0)
s = 115: (0, 23, 0, 14, 10, 5, 0, 0, 11, 0, 23, 0)
s = 116: (0, 17, 0, 14, 10, 5, 0, 0, 10, 0, 26, 0)
s = 117: (0, 33, 0, 16, 9, 3, 0, 0, 6, 0, 19, 0)
s = 118: (0, 44, 0, 18, 11, 4, 0, 0, 11, 0, 20, 0)
s = 119: (0, 31, 0, 20, 6, 4, 0, 0, 9, 0, 21, 0)
s = 120: (0, 40, 0, 15, 9, 4, 0, 0, 11, 0, 20, 0)
s = 121: (0, 39, 0, 18, 9, 4, 0, 0, 8, 0, 21, 0)
s = 122: (0, 37, 0, 17, 11, 7, 0, 0, 14, 0, 40, 0)
s = 123: (0, 26, 0, 15, 9, 4, 0, 0, 10, 0, 31, 0)
s = 124: (0, 28, 0, 10, 12, 4, 0, 0, 9, 0, 18, 0)
s = 125: (0, 28, 0, 14, 7, 5, 0, 0, 8, 0, 35, 0)
s = 126: (0, 23, 0, 9, 13, 6, 0, 0, 9, 0, 21, 0)
s = 127: (0, 23, 0, 16, 7, 3, 0, 0, 8, 0, 37, 0)
s = 128: (0, 23, 0, 22, 6, 5, 0, 0, 10, 0, 22, 0)
s = 129: (0, 20, 0, 12, 16, 5, 0, 0, 9, 0, 43, 0)
s = 130: (0, 37, 0, 16, 7, 7, 0, 0, 13, 0, 31, 0)
s = 131: (0, 37, 0, 13, 7, 5, 0, 0, 8, 0, 47, 0)
s = 132: (0, 17, 0, 11, 16, 3, 0, 0, 12, 0, 26, 0)
s = 133: (0, 17, 0, 17, 12, 6, 0, 0, 12, 0, 26, 0)
s = 134: (0, 21, 0, 13, 13, 4, 0, 0, 7, 0, 34, 0)
s = 135: (0, 24, 0, 12, 10, 4, 0, 0, 10, 0, 52, 0)
s = 136: (0, 43, 0, 13, 8, 4, 0, 0, 17, 0, 19, 0)
s = 137: (0, 39, 0, 14, 11, 5, 0, 0, 8, 0, 21, 0)
s = 138: (0, 34, 0, 10, 12, 4, 0, 0, 10, 0, 32, 0)
s = 139: (0, 43, 0, 13, 8, 4, 0, 0, 15, 0, 23, 0)
s = 140: (0, 25, 0, 10, 9, 6, 0, 0, 11, 0, 19, 0)
s = 141: (0, 37, 0, 11, 9, 4, 0, 0, 8, 0, 26, 0)
s = 142: (0, 27, 0, 11, 5, 3, 0, 0, 12, 0, 39, 0)
s = 143: (0, 27, 0, 14, 9, 7, 0, 0, 7, 0, 27, 0)
s = 144: (0, 19, 0, 15, 8, 3, 0, 0, 7, 0, 17, 0)
s = 145: (0, 16, 0, 10, 12, 4, 0, 0, 7, 0, 31, 0)
s = 146: (0, 20, 0, 12, 7, 6, 0, 0, 10, 0, 16, 0)
s = 147: (0, 23, 0, 14, 8, 4, 0, 0, 12, 0, 21, 0)
s = 148: (0, 18, 0, 13, 13, 4, 0, 0, 12, 0, 21, 0)
s = 149: (0, 35, 0, 16, 6, 3, 0, 0, 11, 0, 22, 0)
s = 150: (0, 26, 0, 15, 7, 5, 0, 0, 7, 0, 18, 0)
s = 151: (0, 29, 0, 12, 8, 3, 0, 0, 7, 0, 34, 0)
s = 152: (0, 28, 0, 10, 10, 6, 0, 0, 10, 0, 21, 0)
s = 153: (0, 21, 0, 20, 11, 3, 0, 0, 8, 0, 26, 0)
s = 154: (0, 15, 0, 11, 9, 4, 0, 0, 14, 0, 31, 0)
s = 155: (0, 38, 0, 15, 9, 5, 0, 0, 15, 0, 22, 0)
s = 156: (0, 26, 0, 18, 8, 3, 0, 0, 8, 0, 32, 0)
s = 157: (0, 27, 0, 23, 8, 5, 0, 0, 13, 0, 19, 0)
s = 158: (0, 28, 0, 28, 10, 3, 0, 0, 9, 0, 34, 0)
s = 159: (0, 25, 0, 10, 10, 5, 0, 0, 15, 0, 20, 0)
s = 160: (0, 37, 0, 11, 16, 6, 0, 0, 13, 0, 38, 0)
s = 161: (0, 28, 0, 20, 8, 3, 0, 0, 16, 0, 39, 0)
s = 162: (0, 29, 0, 14, 9, 4, 0, 0, 7, 0, 27, 0)
s = 163: (0, 28, 0, 18, 7, 7, 0, 0, 6, 0, 20, 0)
s = 164: (0, 21, 0, 13, 8, 5, 0, 0, 15, 0, 31, 0)
s = 165: (0, 34, 0, 23, 10, 4, 0, 0, 12, 0, 15, 0)
s = 166: (0, 28, 0, 15, 11, 5, 0, 0, 10, 0, 20, 0)
s = 167: (0, 32, 0, 20, 12, 4, 0, 0, 15, 0, 29, 0)
s = 168: (0, 18, 0, 17, 6, 6, 0, 0, 7, 0, 26, 0)
s = 169: (0, 26, 0, 10, 11, 6, 0, 0, 7, 0, 35, 0)
s = 170: (0, 26, 0, 14, 7, 3, 0, 0, 7, 0, 41, 0)
s = 171: (0, 25, 0, 22, 14, 4, 0, 0, 8, 0, 33, 0)
s = 172: (0, 19, 0, 11, 11, 6, 0, 0, 11, 0, 38, 0)
s = 173: (0, 30, 0, 15, 12, 6, 0, 0, 9, 0, 22, 0)
s = 174: (0, 32, 0, 16, 13, 5, 0, 0, 11, 0, 36, 0)
s = 175: (0, 23, 0, 21, 9, 5, 0, 0, 8, 0, 26, 0)
s = 176: (0, 19, 0, 10, 9, 4, 0, 0, 15, 0, 25, 0)
s = 177: (0, 26, 0, 15, 8, 6, 0, 0, 8, 0, 24, 0)
s = 178: (0, 19, 0, 12, 13, 7, 0, 0, 11, 0, 21, 0)
s = 179: (0, 28, 0, 10, 7, 6, 0, 0, 15, 0, 37, 0)
s = 180: (0, 23, 0, 12, 9, 3, 0, 0, 11, 0, 25, 0)
s = 181: (0, 35, 0, 18, 8, 5, 0, 0, 10, 0, 24, 0)
s = 182: (0, 36, 0, 13, 10, 6, 0, 0, 13, 0, 23, 0)
s = 183: (0, 25, 0, 18, 8, 3, 0, 0, 8, 0, 34, 0)
s = 184: (0, 24, 0, 11, 8, 5, 0, 0, 10, 0, 25, 0)
s = 185: (0, 25, 0, 18, 7, 7, 0, 0, 11, 0, 28, 0)
s = 186: (0, 21, 0, 9, 11, 6, 0, 0, 11, 0, 35, 0)
s = 187: (0, 22, 0, 9, 8, 4, 0, 0, 12, 0, 28, 0)
s = 188: (0, 30, 0, 20, 7, 5, 0, 0, 15, 0, 26, 0)
s = 189: (0, 23, 0, 18, 13, 5, 0, 0, 10, 0, 32, 0)
s = 190: (0, 25, 0, 18, 6, 7, 0, 0, 13, 0, 17, 0)
s = 191: (0, 27, 0, 17, 8, 4, 0, 0, 8, 0, 18, 0)
s = 192: (0, 40, 0, 11, 8, 4, 0, 0, 13, 0, 22, 0)
s = 193: (0, 20, 0, 12, 6, 4, 0, 0, 8, 0, 27, 0)
s = 194: (0, 20, 0, 10, 6, 5, 0, 0, 16, 0, 18, 0)
s = 195: (0, 30, 0, 12, 8, 6, 0, 0, 12, 0, 37, 0)
s = 196: (0, 21, 0, 17, 8, 3, 0, 0, 8, 0, 23, 0)
s = 197: (0, 29, 0, 21, 7, 6, 0, 0, 11, 0, 15, 0)
s = 198: (0, 28, 0, 12, 8, 4, 0, 0, 9, 0, 28, 0)
s = 199: (0, 34, 0, 19, 15, 4, 0, 0, 13, 0, 19, 0)
s = 200: (0, 27, 0, 12, 14, 5, 0, 0, 12, 0, 30, 0)
------------------------------------------------------------------------
RESOURCE k = 3
s = 1: (0, 0, 7, 0, 0, 0, 9, 6, 0, 5, 0, 0)
s = 2: (0, 0, 11, 0, 0, 0, 14, 7, 0, 5, 0, 0)
s = 3: (0, 0, 10, 0, 0, 0, 7, 6, 0, 9, 0, 0)
s = 4: (0, 0, 11, 0, 0, 0, 9, 7, 0, 10, 0, 0)
s = 5: (0, 0, 11, 0, 0, 0, 7, 7, 0, 9, 0, 0)
s = 6: (0, 0, 15, 0, 0, 0, 9, 6, 0, 7, 0, 0)
s = 7: (0, 0, 9, 0, 0, 0, 9, 4, 0, 7, 0, 0)
s = 8: (0, 0, 8, 0, 0, 0, 6, 6, 0, 9, 0, 0)
s = 9: (0, 0, 8, 0, 0, 0, 7, 7, 0, 8, 0, 0)
s = 10: (0, 0, 16, 0, 0, 0, 9, 9, 0, 7, 0, 0)
s = 11: (0, 0, 10, 0, 0, 0, 10, 9, 0, 6, 0, 0)
s = 12: (0, 0, 8, 0, 0, 0, 6, 4, 0, 9, 0, 0)
s = 13: (0, 0, 10, 0, 0, 0, 14, 9, 0, 6, 0, 0)
s = 14: (0, 0, 6, 0, 0, 0, 9, 5, 0, 7, 0, 0)
s = 15: (0, 0, 7, 0, 0, 0, 9, 6, 0, 11, 0, 0)
s = 16: (0, 0, 10, 0, 0, 0, 7, 8, 0, 7, 0, 0)
s = 17: (0, 0, 11, 0, 0, 0, 8, 6, 0, 6, 0, 0)
s = 18: (0, 0, 16, 0, 0, 0, 6, 6, 0, 9, 0, 0)
s = 19: (0, 0, 9, 0, 0, 0, 8, 7, 0, 5, 0, 0)
s = 20: (0, 0, 7, 0, 0, 0, 9, 8, 0, 8, 0, 0)
s = 21: (0, 0, 15, 0, 0, 0, 8, 6, 0, 11, 0, 0)
s = 22: (0, 0, 9, 0, 0, 0, 8, 8, 0, 5, 0, 0)
s = 23: (0, 0, 9, 0, 0, 0, 10, 9, 0, 8, 0, 0)
s = 24: (0, 0, 10, 0, 0, 0, 11, 11, 0, 7, 0, 0)
s = 25: (0, 0, 12, 0, 0, 0, 7, 5, 0, 5, 0, 0)
s = 26: (0, 0, 8, 0, 0, 0, 8, 7, 0, 4, 0, 0)
s = 27: (0, 0, 8, 0, 0, 0, 8, 5, 0, 8, 0, 0)
s = 28: (0, 0, 11, 0, 0, 0, 7, 5, 0, 6, 0, 0)
s = 29: (0, 0, 9, 0, 0, 0, 9, 6, 0, 5, 0, 0)
s = 30: (0, 0, 11, 0, 0, 0, 8, 8, 0, 4, 0, 0)
s = 31: (0, 0, 10, 0, 0, 0, 8, 6, 0, 8, 0, 0)
s = 32: (0, 0, 11, 0, 0, 0, 12, 7, 0, 5, 0, 0)
s = 33: (0, 0, 12, 0, 0, 0, 8, 7, 0, 8, 0, 0)
s = 34: (0, 0, 6, 0, 0, 0, 8, 5, 0, 6, 0, 0)
s = 35: (0, 0, 14, 0, 0, 0, 7, 5, 0, 5, 0, 0)
s = 36: (0, 0, 6, 0, 0, 0, 7, 11, 0, 4, 0, 0)
s = 37: (0, 0, 7, 0, 0, 0, 10, 7, 0, 6, 0, 0)
s = 38: (0, 0, 7, 0, 0, 0, 9, 7, 0, 6, 0, 0)
s = 39: (0, 0, 8, 0, 0, 0, 5, 9, 0, 9, 0, 0)
s = 40: (0, 0, 8, 0, 0, 0, 8, 7, 0, 7, 0, 0)
s = 41: (0, 0, 10, 0, 0, 0, 8, 4, 0, 9, 0, 0)
s = 42: (0, 0, 10, 0, 0, 0, 5, 7, 0, 6, 0, 0)
s = 43: (0, 0, 9, 0, 0, 0, 9, 8, 0, 5, 0, 0)
s = 44: (0, 0, 7, 0, 0, 0, 10, 8, 0, 8, 0, 0)
s = 45: (0, 0, 7, 0, 0, 0, 7, 7, 0, 7, 0, 0)
s = 46: (0, 0, 8, 0, 0, 0, 5, 6, 0, 5, 0, 0)
s = 47: (0, 0, 11, 0, 0, 0, 8, 8, 0, 4, 0, 0)
s = 48: (0, 0, 6, 0, 0, 0, 14, 10, 0, 6, 0, 0)
s = 49: (0, 0, 6, 0, 0, 0, 11, 6, 0, 7, 0, 0)
s = 50: (0, 0, 10, 0, 0, 0, 8, 6, 0, 5, 0, 0)
s = 51: (0, 0, 10, 0, 0, 0, 8, 4, 0, 5, 0, 0)
s = 52: (0, 0, 12, 0, 0, 0, 14, 4, 0, 9, 0, 0)
s = 53: (0, 0, 6, 0, 0, 0, 8, 7, 0, 9, 0, 0)
s = 54: (0, 0, 6, 0, 0, 0, 6, 4, 0, 5, 0, 0)
s = 55: (0, 0, 16, 0, 0, 0, 8, 6, 0, 5, 0, 0)
s = 56: (0, 0, 9, 0, 0, 0, 12, 7, 0, 6, 0, 0)
s = 57: (0, 0, 13, 0, 0, 0, 7, 7, 0, 4, 0, 0)
s = 58: (0, 0, 8, 0, 0, 0, 9, 7, 0, 5, 0, 0)
s = 59: (0, 0, 8, 0, 0, 0, 10, 12, 0, 6, 0, 0)
s = 60: (0, 0, 7, 0, 0, 0, 5, 7, 0, 5, 0, 0)
s = 61: (0, 0, 10, 0, 0, 0, 7, 7, 0, 6, 0, 0)
s = 62: (0, 0, 15, 0, 0, 0, 7, 6, 0, 7, 0, 0)
s = 63: (0, 0, 12, 0, 0, 0, 6, 10, 0, 6, 0, 0)
s = 64: (0, 0, 9, 0, 0, 0, 7, 5, 0, 9, 0, 0)
s = 65: (0, 0, 10, 0, 0, 0, 6, 7, 0, 8, 0, 0)
s = 66: (0, 0, 8, 0, 0, 0, 12, 5, 0, 6, 0, 0)
s = 67: (0, 0, 12, 0, 0, 0, 8, 5, 0, 8, 0, 0)
s = 68: (0, 0, 14, 0, 0, 0, 7, 7, 0, 5, 0, 0)
s = 69: (0, 0, 7, 0, 0, 0, 9, 7, 0, 5, 0, 0)
s = 70: (0, 0, 9, 0, 0, 0, 12, 5, 0, 6, 0, 0)
s = 71: (0, 0, 10, 0, 0, 0, 11, 7, 0, 7, 0, 0)
s = 72: (0, 0, 7, 0, 0, 0, 9, 6, 0, 8, 0, 0)
s = 73: (0, 0, 7, 0, 0, 0, 7, 10, 0, 9, 0, 0)
s = 74: (0, 0, 14, 0, 0, 0, 10, 5, 0, 8, 0, 0)
s = 75: (0, 0, 7, 0, 0, 0, 8, 7, 0, 4, 0, 0)
s = 76: (0, 0, 12, 0, 0, 0, 7, 11, 0, 6, 0, 0)
s = 77: (0, 0, 7, 0, 0, 0, 6, 5, 0, 5, 0, 0)
s = 78: (0, 0, 9, 0, 0, 0, 8, 9, 0, 4, 0, 0)
s = 79: (0, 0, 8, 0, 0, 0, 8, 6, 0, 8, 0, 0)
s = 80: (0, 0, 5, 0, 0, 0, 8, 5, 0, 4, 0, 0)
s = 81: (0, 0, 9, 0, 0, 0, 8, 8, 0, 9, 0, 0)
s = 82: (0, 0, 14, 0, 0, 0, 11, 7, 0, 6, 0, 0)
s = 83: (0, 0, 15, 0, 0, 0, 5, 10, 0, 7, 0, 0)
s = 84: (0, 0, 7, 0, 0, 0, 14, 6, 0, 9, 0, 0)
s = 85: (0, 0, 12, 0, 0, 0, 10, 7, 0, 6, 0, 0)
s = 86: (0, 0, 7, 0, 0, 0, 6, 9, 0, 7, 0, 0)
s = 87: (0, 0, 7, 0, 0, 0, 9, 7, 0, 6, 0, 0)
s = 88: (0, 0, 7, 0, 0, 0, 13, 9, 0, 5, 0, 0)
s = 89: (0, 0, 8, 0, 0, 0, 8, 8, 0, 5, 0, 0)
s = 90: (0, 0, 9, 0, 0, 0, 10, 7, 0, 5, 0, 0)
s = 91: (0, 0, 8, 0, 0, 0, 7, 7, 0, 4, 0, 0)
s = 92: (0, 0, 7, 0, 0, 0, 10, 4, 0, 5, 0, 0)
s = 93: (0, 0, 8, 0, 0, 0, 8, 5, 0, 8, 0, 0)
s = 94: (0, 0, 11, 0, 0, 0, 7, 4, 0, 6, 0, 0)
s = 95: (0, 0, 12, 0, 0, 0, 7, 6, 0, 7, 0, 0)
s = 96: (0, 0, 8, 0, 0, 0, 9, 5, 0, 7, 0, 0)
s = 97: (0, 0, 12, 0, 0, 0, 10, 6, 0, 10, 0, 0)
s = 98: (0, 0, 7, 0, 0, 0, 8, 5, 0, 7, 0, 0)
s = 99: (0, 0, 8, 0, 0, 0, 7, 5, 0, 5, 0, 0)
s = 100: (0, 0, 6, 0, 0, 0, 9, 7, 0, 6, 0, 0)
s = 101: (0, 0, 7, 0, 0, 0, 6, 6, 0, 6, 0, 0)
s = 102: (0, 0, 12, 0, 0, 0, 8, 9, 0, 9, 0, 0)
s = 103: (0, 0, 11, 0, 0, 0, 10, 6, 0, 9, 0, 0)
s = 104: (0, 0, 11, 0, 0, 0, 10, 6, 0, 4, 0, 0)
s = 105: (0, 0, 9, 0, 0, 0, 9, 4, 0, 9, 0, 0)
s = 106: (0, 0, 8, 0, 0, 0, 6, 4, 0, 8, 0, 0)
s = 107: (0, 0, 6, 0, 0, 0, 5, 6, 0, 5, 0, 0)
s = 108: (0, 0, 12, 0, 0, 0, 13, 9, 0, 12, 0, 0)
s = 109: (0, 0, 11, 0, 0, 0, 6, 9, 0, 5, 0, 0)
s = 110: (0, 0, 7, 0, 0, 0, 7, 4, 0, 7, 0, 0)
s = 111: (0, 0, 11, 0, 0, 0, 9, 9, 0, 6, 0, 0)
s = 112: (0, 0, 13, 0, 0, 0, 6, 7, 0, 8, 0, 0)
s = 113: (0, 0, 12, 0, 0, 0, 10, 8, 0, 10, 0, 0)
s = 114: (0, 0, 9, 0, 0, 0, 12, 5, 0, 9, 0, 0)
s = 115: (0, 0, 6, 0, 0, 0, 7, 9, 0, 6, 0, 0)
s = 116: (0, 0, 7, 0, 0, 0, 6, 6, 0, 6, 0, 0)
s = 117: (0, 0, 6, 0, 0, 0, 11, 5, 0, 4, 0, 0)
s = 118: (0, 0, 12, 0, 0, 0, 6, 6, 0, 4, 0, 0)
s = 119: (0, 0, 10, 0, 0, 0, 6, 5, 0, 6, 0, 0)
s = 120: (0, 0, 8, 0, 0, 0, 14, 4, 0, 10, 0, 0)
s = 121: (0, 0, 7, 0, 0, 0, 11, 7, 0, 5, 0, 0)
s = 122: (0, 0, 11, 0, 0, 0, 6, 10, 0, 6, 0, 0)
s = 123: (0, 0, 7, 0, 0, 0, 11, 9, 0, 7, 0, 0)
s = 124: (0, 0, 13, 0, 0, 0, 14, 7, 0, 11, 0, 0)
s = 125: (0, 0, 6, 0, 0, 0, 11, 11, 0, 10, 0, 0)
s = 126: (0, 0, 10, 0, 0, 0, 7, 5, 0, 4, 0, 0)
s = 127: (0, 0, 13, 0, 0, 0, 9, 6, 0, 7, 0, 0)
s = 128: (0, 0, 7, 0, 0, 0, 9, 7, 0, 8, 0, 0)
s = 129: (0, 0, 10, 0, 0, 0, 6, 5, 0, 10, 0, 0)
s = 130: (0, 0, 8, 0, 0, 0, 10, 7, 0, 4, 0, 0)
s = 131: (0, 0, 13, 0, 0, 0, 7, 8, 0, 6, 0, 0)
s = 132: (0, 0, 9, 0, 0, 0, 6, 9, 0, 4, 0, 0)
s = 133: (0, 0, 14, 0, 0, 0, 9, 5, 0, 6, 0, 0)
s = 134: (0, 0, 6, 0, 0, 0, 11, 5, 0, 5, 0, 0)
s = 135: (0, 0, 12, 0, 0, 0, 10, 8, 0, 7, 0, 0)
s = 136: (0, 0, 9, 0, 0, 0, 10, 6, 0, 7, 0, 0)
s = 137: (0, 0, 12, 0, 0, 0, 10, 6, 0, 4, 0, 0)
s = 138: (0, 0, 10, 0, 0, 0, 5, 4, 0, 5, 0, 0)
s = 139: (0, 0, 6, 0, 0, 0, 5, 8, 0, 7, 0, 0)
s = 140: (0, 0, 7, 0, 0, 0, 9, 6, 0, 10, 0, 0)
s = 141: (0, 0, 9, 0, 0, 0, 7, 8, 0, 10, 0, 0)
s = 142: (0, 0, 10, 0, 0, 0, 10, 8, 0, 8, 0, 0)
s = 143: (0, 0, 13, 0, 0, 0, 8, 5, 0, 6, 0, 0)
s = 144: (0, 0, 5, 0, 0, 0, 8, 4, 0, 8, 0, 0)
s = 145: (0, 0, 11, 0, 0, 0, 6, 8, 0, 7, 0, 0)
s = 146: (0, 0, 10, 0, 0, 0, 14, 9, 0, 8, 0, 0)
s = 147: (0, 0, 9, 0, 0, 0, 9, 4, 0, 7, 0, 0)
s = 148: (0, 0, 10, 0, 0, 0, 5, 7, 0, 4, 0, 0)
s = 149: (0, 0, 8, 0, 0, 0, 9, 8, 0, 10, 0, 0)
s = 150: (0, 0, 9, 0, 0, 0, 9, 6, 0, 4, 0, 0)
s = 151: (0, 0, 13, 0, 0, 0, 12, 8, 0, 7, 0, 0)
s = 152: (0, 0, 18, 0, 0, 0, 10, 7, 0, 6, 0, 0)
s = 153: (0, 0, 11, 0, 0, 0, 8, 10, 0, 6, 0, 0)
s = 154: (0, 0, 11, 0, 0, 0, 5, 9, 0, 7, 0, 0)
s = 155: (0, 0, 15, 0, 0, 0, 9, 10, 0, 5, 0, 0)
s = 156: (0, 0, 8, 0, 0, 0, 7, 8, 0, 7, 0, 0)
s = 157: (0, 0, 10, 0, 0, 0, 10, 5, 0, 5, 0, 0)
s = 158: (0, 0, 5, 0, 0, 0, 5, 9, 0, 8, 0, 0)
s = 159: (0, 0, 7, 0, 0, 0, 8, 6, 0, 8, 0, 0)
s = 160: (0, 0, 11, 0, 0, 0, 12, 7, 0, 9, 0, 0)
s = 161: (0, 0, 10, 0, 0, 0, 8, 9, 0, 5, 0, 0)
s = 162: (0, 0, 6, 0, 0, 0, 11, 8, 0, 11, 0, 0)
s = 163: (0, 0, 10, 0, 0, 0, 8, 6, 0, 6, 0, 0)
s = 164: (0, 0, 9, 0, 0, 0, 9, 5, 0, 5, 0, 0)
s = 165: (0, 0, 8, 0, 0, 0, 7, 7, 0, 4, 0, 0)
s = 166: (0, 0, 10, 0, 0, 0, 7, 7, 0, 7, 0, 0)
s = 167: (0, 0, 9, 0, 0, 0, 6, 9, 0, 10, 0, 0)
s = 168: (0, 0, 7, 0, 0, 0, 8, 4, 0, 4, 0, 0)
s = 169: (0, 0, 11, 0, 0, 0, 7, 5, 0, 5, 0, 0)
s = 170: (0, 0, 8, 0, 0, 0, 8, 7, 0, 7, 0, 0)
s = 171: (0, 0, 9, 0, 0, 0, 10, 5, 0, 8, 0, 0)
s = 172: (0, 0, 8, 0, 0, 0, 7, 6, 0, 6, 0, 0)
s = 173: (0, 0, 6, 0, 0, 0, 9, 5, 0, 10, 0, 0)
s = 174: (0, 0, 6, 0, 0, 0, 10, 5, 0, 4, 0, 0)
s = 175: (0, 0, 7, 0, 0, 0, 12, 7, 0, 9, 0, 0)
s = 176: (0, 0, 8, 0, 0, 0, 10, 6, 0, 5, 0, 0)
s = 177: (0, 0, 10, 0, 0, 0, 9, 6, 0, 10, 0, 0)
s = 178: (0, 0, 10, 0, 0, 0, 8, 7, 0, 9, 0, 0)
s = 179: (0, 0, 7, 0, 0, 0, 9, 6, 0, 7, 0, 0)
s = 180: (0, 0, 16, 0, 0, 0, 10, 5, 0, 5, 0, 0)
s = 181: (0, 0, 9, 0, 0, 0, 8, 6, 0, 5, 0, 0)
s = 182: (0, 0, 15, 0, 0, 0, 10, 7, 0, 6, 0, 0)
s = 183: (0, 0, 11, 0, 0, 0, 8, 10, 0, 9, 0, 0)
s = 184: (0, 0, 7, 0, 0, 0, 14, 5, 0, 7, 0, 0)
s = 185: (0, 0, 11, 0, 0, 0, 8, 6, 0, 5, 0, 0)
s = 186: (0, 0, 12, 0, 0, 0, 9, 5, 0, 9, 0, 0)
s = 187: (0, 0, 7, 0, 0, 0, 7, 5, 0, 6, 0, 0)
s = 188: (0, 0, 7, 0, 0, 0, 9, 5, 0, 8, 0, 0)
s = 189: (0, 0, 7, 0, 0, 0, 9, 6, 0, 6, 0, 0)
s = 190: (0, 0, 7, 0, 0, 0, 8, 9, 0, 4, 0, 0)
s = 191: (0, 0, 11, 0, 0, 0, 8, 7, 0, 5, 0, 0)
s = 192: (0, 0, 14, 0, 0, 0, 7, 6, 0, 6, 0, 0)
s = 193: (0, 0, 7, 0, 0, 0, 12, 4, 0, 6, 0, 0)
s = 194: (0, 0, 8, 0, 0, 0, 8, 5, 0, 4, 0, 0)
s = 195: (0, 0, 6, 0, 0, 0, 8, 7, 0, 7, 0, 0)
s = 196: (0, 0, 8, 0, 0, 0, 6, 6, 0, 6, 0, 0)
s = 197: (0, 0, 10, 0, 0, 0, 7, 4, 0, 10, 0, 0)
s = 198: (0, 0, 10, 0, 0, 0, 7, 10, 0, 4, 0, 0)
s = 199: (0, 0, 11, 0, 0, 0, 10, 4, 0, 10, 0, 0)
s = 200: (0, 0, 6, 0, 0, 0, 11, 4, 0, 9, 0, 0)
************************************************************************
ES/LS-VALUES:
jobnr.   ES(i)    LS(i)
------------------------------------------------------------------------
  0        0        0
  1        0       60
  2        0       74
  3        0       64
  4        5       68
  5        5       66
  6        5       66
  7        7       68
  8        6       76
  9        6       72
 10        9       70
 11       16       78
************************************************************************
BIG-M-VALUES:
M1 = 38, M2 = 138
************************************************************************
